c Reduced graph for GEOM70 generated by Cyril Grelier
p edge 68 261
e 1 12
e 1 14
e 1 28
e 1 34
e 1 38
e 1 44
e 1 48
e 1 50
e 1 52
e 1 55
e 1 63
e 1 66
e 2 13
e 2 24
e 2 33
e 2 37
e 2 40
e 2 54
e 2 57
e 2 64
e 3 13
e 3 24
e 3 25
e 3 32
e 3 36
e 3 37
e 3 57
e 3 64
e 4 15
e 4 19
e 4 29
e 4 39
e 4 41
e 4 43
e 4 45
e 5 23
e 5 27
e 5 46
e 5 47
e 5 53
e 5 56
e 5 67
e 6 8
e 6 14
e 6 16
e 6 28
e 6 40
e 6 48
e 6 66
e 7 17
e 7 35
e 7 39
e 7 45
e 7 49
e 7 59
e 8 14
e 8 16
e 8 28
e 8 48
e 8 66
e 9 29
e 9 35
e 9 49
e 9 59
e 9 61
e 9 62
e 10 18
e 10 31
e 10 32
e 10 49
e 10 59
e 11 17
e 11 45
e 12 14
e 12 28
e 12 34
e 12 38
e 12 48
e 12 50
e 12 51
e 12 52
e 12 63
e 12 66
e 13 24
e 13 25
e 13 37
e 13 40
e 13 51
e 13 54
e 13 57
e 13 64
e 13 65
e 14 28
e 14 34
e 14 48
e 14 51
e 14 52
e 14 63
e 14 66
e 15 19
e 15 29
e 15 35
e 15 39
e 15 41
e 15 43
e 15 45
e 16 33
e 16 40
e 16 54
e 16 65
e 17 38
e 17 44
e 17 47
e 17 55
e 18 32
e 18 49
e 18 59
e 19 29
e 19 35
e 19 39
e 19 41
e 19 43
e 19 45
e 20 21
e 20 26
e 20 30
e 20 31
e 20 58
e 20 60
e 20 61
e 20 68
e 21 30
e 21 31
e 21 32
e 21 58
e 21 60
e 21 68
e 22 44
e 22 47
e 22 52
e 22 53
e 22 56
e 22 63
e 23 27
e 23 46
e 23 53
e 23 67
e 24 25
e 24 36
e 24 37
e 24 54
e 24 57
e 24 64
e 24 65
e 25 36
e 25 37
e 25 57
e 25 64
e 26 30
e 26 58
e 26 60
e 26 61
e 26 68
e 27 46
e 27 53
e 27 67
e 28 34
e 28 48
e 28 50
e 28 51
e 28 63
e 28 65
e 28 66
e 29 35
e 29 39
e 29 45
e 29 62
e 30 58
e 30 60
e 30 61
e 30 68
e 31 32
e 31 58
e 31 60
e 32 36
e 33 40
e 33 54
e 34 42
e 34 48
e 34 50
e 34 51
e 34 63
e 34 65
e 34 66
e 35 39
e 35 45
e 35 49
e 35 59
e 35 62
e 36 37
e 36 42
e 36 57
e 36 64
e 37 57
e 37 64
e 38 44
e 38 47
e 38 50
e 38 52
e 38 55
e 39 45
e 40 54
e 40 65
e 41 43
e 42 50
e 42 51
e 44 47
e 44 52
e 44 55
e 44 56
e 44 63
e 46 47
e 46 53
e 46 56
e 46 67
e 47 52
e 47 53
e 47 55
e 47 56
e 47 63
e 48 51
e 48 63
e 48 66
e 49 59
e 49 61
e 49 62
e 50 51
e 50 55
e 51 54
e 51 64
e 51 65
e 52 53
e 52 55
e 52 56
e 52 63
e 53 56
e 53 63
e 53 67
e 54 64
e 54 65
e 55 56
e 55 63
e 56 67
e 57 64
e 58 60
e 58 68
e 59 62
e 60 68
e 61 62
e 63 66
e 64 65
